EDIFF = 1e-06
EDIFFG = -0.005
ENCUT = 400
IALGO = 38
IBRION = 2
ICHARG = 2
ISIF = 4
ISMEAR = 0
ISTART = 0
LCHARG = False
LWAVE = False
NELM = 300
NSW = 300
SIGMA = 0.05
SYSTEM = Your System Name
