Mo24 S48 - Bulk
1.0
  12.7362640000000003    0.0000000000000000    0.0000000000000000
  -0.0000000000000002   16.5448920000000008    0.0000000000000000
   0.0000000000000000    0.0000000000000000   18.1271130000000014
Mo S
24 48
direct
   0.0000000000000000    0.6666666666666666    0.5000000000000000 Mo
   0.1250000000000000    0.8333333333333333    0.5000000000000000 Mo
   0.0000000000000000    0.3333333333333333    0.5000000000000000 Mo
   0.1250000000000000    0.5000000000000000    0.5000000000000000 Mo
   0.2500000000000000    0.6666666666666666    0.5000000000000000 Mo
   0.3750000000000000    0.8333333333333333    0.5000000000000000 Mo
   0.0000000000000000    0.0000000000000000    0.5000000000000000 Mo
   0.1250000000000000    0.1666666666666667    0.5000000000000000 Mo
   0.2500000000000000    0.3333333333333333    0.5000000000000000 Mo
   0.3750000000000000    0.5000000000000000    0.5000000000000000 Mo
   0.5000000000000000    0.6666666666666666    0.5000000000000000 Mo
   0.6250000000000000    0.8333333333333333    0.5000000000000000 Mo
   0.2500000000000000    0.0000000000000000    0.5000000000000000 Mo
   0.3750000000000000    0.1666666666666667    0.5000000000000000 Mo
   0.5000000000000000    0.3333333333333333    0.5000000000000000 Mo
   0.6250000000000000    0.5000000000000000    0.5000000000000000 Mo
   0.7500000000000000    0.6666666666666666    0.5000000000000000 Mo
   0.8749999999999999    0.8333333333333333    0.5000000000000000 Mo
   0.5000000000000000    0.0000000000000000    0.5000000000000000 Mo
   0.6250000000000000    0.1666666666666667    0.5000000000000000 Mo
   0.7500000000000000    0.3333333333333333    0.5000000000000000 Mo
   0.8749999999999999    0.5000000000000000    0.5000000000000000 Mo
   0.7500000000000000    1.0000000000000000    0.5000000000000000 Mo
   0.8749999999999999    0.1666666666666666    0.5000000000000000 Mo
   0.1250000000000000    0.6111110000000000    0.5862550000000000 S
   0.2500000000000000    0.7777776666666666    0.5862550000000000 S
   0.1250000000000000    0.2777776666666666    0.5862550000000000 S
   0.2500000000000000    0.4444443333333333    0.5862550000000000 S
   0.3750000000000000    0.6111110000000000    0.5862550000000000 S
   0.5000000000000000    0.7777776666666666    0.5862550000000000 S
   0.1250000000000000    0.9444443333333333    0.5862550000000000 S
   0.2500000000000000    0.1111110000000000    0.5862550000000000 S
   0.3750000000000000    0.2777776666666666    0.5862550000000000 S
   0.5000000000000000    0.4444443333333333    0.5862550000000000 S
   0.6250000000000000    0.6111110000000000    0.5862550000000000 S
   0.7500000000000000    0.7777776666666666    0.5862550000000000 S
   0.3750000000000000    0.9444443333333333    0.5862550000000000 S
   0.5000000000000000    0.1111110000000000    0.5862550000000000 S
   0.6250000000000000    0.2777776666666666    0.5862550000000000 S
   0.7500000000000000    0.4444443333333333    0.5862550000000000 S
   0.8750000000000001    0.6111110000000000    0.5862550000000000 S
   0.0000000000000000    0.7777776666666666    0.5862550000000000 S
   0.6250000000000000    0.9444443333333333    0.5862550000000000 S
   0.7500000000000000    0.1111110000000000    0.5862550000000000 S
   0.8750000000000001    0.2777776666666666    0.5862550000000000 S
   0.0000000000000000    0.4444443333333333    0.5862550000000000 S
   0.8750000000000001    0.9444443333333333    0.5862550000000000 S
   0.0000000000000000    0.1111110000000000    0.5862550000000000 S
   0.1250000000000000    0.6111110000000000    0.4137450000000000 S
   0.2500000000000000    0.7777776666666666    0.4137450000000000 S
   0.1250000000000000    0.2777776666666666    0.4137450000000000 S
   0.2500000000000000    0.4444443333333333    0.4137450000000000 S
   0.3750000000000000    0.6111110000000000    0.4137450000000000 S
   0.5000000000000000    0.7777776666666666    0.4137450000000000 S
   0.1250000000000000    0.9444443333333333    0.4137450000000000 S
   0.2500000000000000    0.1111110000000000    0.4137450000000000 S
   0.3750000000000000    0.2777776666666666    0.4137450000000000 S
   0.5000000000000000    0.4444443333333333    0.4137450000000000 S
   0.6250000000000000    0.6111110000000000    0.4137450000000000 S
   0.7500000000000000    0.7777776666666666    0.4137450000000000 S
   0.3750000000000000    0.9444443333333333    0.4137450000000000 S
   0.5000000000000000    0.1111110000000000    0.4137450000000000 S
   0.6250000000000000    0.2777776666666666    0.4137450000000000 S
   0.7500000000000000    0.4444443333333333    0.4137450000000000 S
   0.8750000000000001    0.6111110000000000    0.4137450000000000 S
   0.0000000000000000    0.7777776666666666    0.4137450000000000 S
   0.6250000000000000    0.9444443333333333    0.4137450000000000 S
   0.7500000000000000    0.1111110000000000    0.4137450000000000 S
   0.8750000000000001    0.2777776666666666    0.4137450000000000 S
   0.0000000000000000    0.4444443333333333    0.4137450000000000 S
   0.8750000000000001    0.9444443333333333    0.4137450000000000 S
   0.0000000000000000    0.1111110000000000    0.4137450000000000 S
