# May want to change NCORE, KPAR, AEXX, ENCUT, IBRION, LREAL, NUPDOWN, ISPIN = Typical variable parameters
AEXX = 0.25
ALGO = Normal  # change to all if zhegv, fexcp/f or zbrent errors encountered
EDIFF = 1e-06
ENCUT = 350
GGA = Pe
HFSCREEN = 0.208
IBRION = -1
ICHARG = 1
ICORELEVEL = 0  # needed if using the kumagai-oba (efnv) anisotropic charge correction scheme
ISIF = 2
ISMEAR = 0
ISPIN = 2
ISYM = 0  # symmetry breaking extremely likely for defects
KPAR = 2
LASPH = True
LHFCALC = True
LMAXMIX = 4
LORBIT = 11
LREAL = Auto
LSORBIT = True
LVHAR = True
NCORE = 16
NEDOS = 2000
NELECT = 611.0
NSW = 0
NUPDOWN = 1
PREC = Accurate
PRECFOCK = Fast
SIGMA = 0.05
